n = 20;
matrix = [|
19,7,14,15,17,1,8,1,14,20,7,20,18,11,1,12,20,10,3,0,19,19,|
15,17,5,10,17,13,3,19,19,17,18,17,14,15,15,14,8,8,5,13,9,6,|
18,7,7,11,6,17,9,6,3,6,6,14,20,14,11,3,7,14,18,0,18,3,|
17,3,11,2,4,8,15,3,3,10,18,13,15,1,17,16,12,10,15,1,18,5,|
4,9,8,1,17,9,1,1,8,19,19,9,19,18,3,18,1,0,1,16,8,18,|
20,20,20,5,13,10,20,18,16,16,9,4,11,18,6,9,7,9,8,13,11,3,|
4,13,13,16,6,11,3,17,11,0,6,3,16,19,7,7,16,9,9,10,11,14,|
20,14,14,15,5,15,3,19,4,19,19,20,0,19,5,4,0,7,13,8,0,6,|
15,12,13,12,5,10,19,14,18,14,8,1,20,4,4,12,19,9,6,13,1,14,|
16,6,8,9,1,15,13,16,7,14,7,4,19,1,9,8,15,20,5,14,0,12,|
9,7,15,10,11,7,6,7,4,14,4,5,11,0,1,4,16,2,5,6,20,20,|
0,12,14,5,4,19,15,14,5,12,10,7,8,13,10,17,13,12,15,6,15,17,|
15,20,2,3,12,9,12,0,15,13,8,2,2,3,9,17,20,11,4,7,1,13,|
17,11,20,8,8,10,6,2,19,4,15,5,16,12,20,20,0,11,5,5,10,6,|
3,7,8,13,4,5,9,18,10,16,0,20,15,9,19,20,0,13,3,0,0,1,|
0,7,12,2,17,16,14,2,10,16,13,17,17,18,16,18,7,12,0,15,18,13,|
19,18,1,4,12,2,2,2,20,5,9,6,1,4,8,13,4,2,9,4,17,0,|
19,12,3,3,12,17,12,2,16,19,14,6,2,11,5,7,16,8,3,7,8,18,|
13,10,14,5,9,11,6,18,10,0,8,4,4,2,2,9,11,18,2,5,18,16,|
1,2,15,1,10,16,11,12,8,16,17,12,10,7,2,17,2,5,6,16,6,0,|
2,0,3,10,5,17,6,11,11,12,10,1,2,13,16,3,10,11,14,11,10,12,|];

 card = [|
  0,0,|
  0,1,|
  0,2,|
  0,3,|
  0,4,|
  0,5,|
  0,6,|
  0,7,|
  0,8,|
  0,9,|
  0,10,|
  0,11,|
  0,12,|
  0,13,|
  0,14,|
  0,15,|
  0,16,|
  0,17,|
  0,18,|
  0,19,|
  0,20,|
  1,1,|
  1,2,|
  1,3,|
  1,4,|
  1,5,|
  1,6,|
  1,7,|
  1,8,|
  1,9,|
  1,10,|
  1,11,|
  1,12,|
  1,13,|
  1,14,|
  1,15,|
  1,16,|
  1,17,|
  1,18,|
  1,19,|
  1,20,|
  2,2,|
  2,3,|
  2,4,|
  2,5,|
  2,6,|
  2,7,|
  2,8,|
  2,9,|
  2,10,|
  2,11,|
  2,12,|
  2,13,|
  2,14,|
  2,15,|
  2,16,|
  2,17,|
  2,18,|
  2,19,|
  2,20,|
  3,3,|
  3,4,|
  3,5,|
  3,6,|
  3,7,|
  3,8,|
  3,9,|
  3,10,|
  3,11,|
  3,12,|
  3,13,|
  3,14,|
  3,15,|
  3,16,|
  3,17,|
  3,18,|
  3,19,|
  3,20,|
  4,4,|
  4,5,|
  4,6,|
  4,7,|
  4,8,|
  4,9,|
  4,10,|
  4,11,|
  4,12,|
  4,13,|
  4,14,|
  4,15,|
  4,16,|
  4,17,|
  4,18,|
  4,19,|
  4,20,|
  5,5,|
  5,6,|
  5,7,|
  5,8,|
  5,9,|
  5,10,|
  5,11,|
  5,12,|
  5,13,|
  5,14,|
  5,15,|
  5,16,|
  5,17,|
  5,18,|
  5,19,|
  5,20,|
  6,6,|
  6,7,|
  6,8,|
  6,9,|
  6,10,|
  6,11,|
  6,12,|
  6,13,|
  6,14,|
  6,15,|
  6,16,|
  6,17,|
  6,18,|
  6,19,|
  6,20,|
  7,7,|
  7,8,|
  7,9,|
  7,10,|
  7,11,|
  7,12,|
  7,13,|
  7,14,|
  7,15,|
  7,16,|
  7,17,|
  7,18,|
  7,19,|
  7,20,|
  8,8,|
  8,9,|
  8,10,|
  8,11,|
  8,12,|
  8,13,|
  8,14,|
  8,15,|
  8,16,|
  8,17,|
  8,18,|
  8,19,|
  8,20,|
  9,9,|
  9,10,|
  9,11,|
  9,12,|
  9,13,|
  9,14,|
  9,15,|
  9,16,|
  9,17,|
  9,18,|
  9,19,|
  9,20,|
  10,10,|
  10,11,|
  10,12,|
  10,13,|
  10,14,|
  10,15,|
  10,16,|
  10,17,|
  10,18,|
  10,19,|
  10,20,|
  11,11,|
  11,12,|
  11,13,|
  11,14,|
  11,15,|
  11,16,|
  11,17,|
  11,18,|
  11,19,|
  11,20,|
  12,12,|
  12,13,|
  12,14,|
  12,15,|
  12,16,|
  12,17,|
  12,18,|
  12,19,|
  12,20,|
  13,13,|
  13,14,|
  13,15,|
  13,16,|
  13,17,|
  13,18,|
  13,19,|
  13,20,|
  14,14,|
  14,15,|
  14,16,|
  14,17,|
  14,18,|
  14,19,|
  14,20,|
  15,15,|
  15,16,|
  15,17,|
  15,18,|
  15,19,|
  15,20,|
  16,16,|
  16,17,|
  16,18,|
  16,19,|
  16,20,|
  17,17,|
  17,18,|
  17,19,|
  17,20,|
  18,18,|
  18,19,|
  18,20,|
  19,19,|
  19,20,|
  20,20,|];